81 92064
53 71 43 54 10 59 47 40 80 55 22 29 75 63 24 77 25 67 52 13 56 73 58 49 38 61 30 76 62 27 7 37 21 4 34 69 50 5 1 18 41 51 79 33 3 48 42 16 36 6 11 20 26 65 17 45 46 15 70 32 19 2 23 57 68 72 28 35 44 31 12 66 60 64 8 78 39 81 9 14 74 
